% Generated FlatZinc statistics:
%%%mzn-stat: paths=0
%%%mzn-stat: flatBoolVars=938
%%%mzn-stat: flatIntVars=130
%%%mzn-stat: flatBoolConstraints=290
%%%mzn-stat: flatIntConstraints=1050
%%%mzn-stat: evaluatedReifiedConstraints=74
%%%mzn-stat: evaluatedHalfReifiedConstraints=864
%%%mzn-stat: method="minimize"
%%%mzn-stat: flatTime=0.0988408
%%%mzn-stat-end
end = 112
carga_por_operario = [112, 0, 0]
desbalance = 112
Job 1:  52(op:1)  68(op:1)  73(op:1)  80(op:1)  89(op:1)
Job 2:   0(op:1)  16(op:1)  25(op:1)  56(op:1)  81(op:1)
Job 3:  21(op:1)  37(op:1)  74(op:1) 109(op:1) 111(op:1)
Job 4:   3(op:1)  30(op:1)  45(op:1)  69(op:1)  97(op:1)
Job 5:   9(op:1)  32(op:1)  62(op:1)  96(op:1) 103(op:1)
----------
%%%mzn-stat: initTime=0.00494642
%%%mzn-stat: solveTime=59.9011
%%%mzn-stat: solutions=1
%%%mzn-stat: variables=1070
%%%mzn-stat: propagators=1340
%%%mzn-stat: propagations=1085806822
%%%mzn-stat: nodes=11312284
%%%mzn-stat: failures=5656120
%%%mzn-stat: restarts=0
%%%mzn-stat: peakDepth=73
%%%mzn-stat-end
%%%mzn-stat: nSolutions=1
%%%mzn-stat-end
